(set-info :smt-lib-version 2.6)
(set-logic LRA)
(set-info :source |
   Monniaux, David; Quantifier Elimination by Lazy Model Enumeration, CAV 2010
|)
(set-info :category "random")
; ./Mjollnir_examples/B4/formula_112.m
(set-info :status unsat)
(assert
 (exists ((|v11:0| Real) )(exists ((|v10:1| Real) )(exists ((|v9:2| Real) )(exists ((|v8:3| Real) )(forall ((|v7:4| Real) )(forall ((|v6:5| Real) )(forall ((|v5:6| Real) )(forall ((|v4:7| Real) )(exists ((|v3:8| Real) )(exists ((|v2:9| Real) )(exists ((|v1:10| Real) )(exists ((|v0:11| Real) )(let ((?x111 0))
(let ((?x614 (+ (+ (* (- 1) |v9:2|) (* 13 |v9:2|)) (* (- 19) |v0:11|))))
(let ((?x24 (- 16)))
(let ((?x607 (+ (+ (* (- 1) |v0:11|) (* (- 6) |v11:0|)) (* 3 |v1:10|))))
(let (($x618 (and (<= (+ ?x607 (* (- 7) |v4:7|)) ?x24) (<= (+ ?x614 (* 10 |v7:4|)) ?x111))))
(let ((?x65 17))
(let ((?x599 (+ (+ (* (- 19) |v8:3|) (* 19 |v7:4|)) (* 9 |v2:9|))))
(let ((?x239 18))
(let ((?x272 (* ?x111 |v0:11|)))
(let ((?x204 9))
(let ((?x453 (* ?x204 |v3:8|)))
(let ((?x593 (+ (+ (+ (* (- 12) |v10:1|) (* 12 |v10:1|)) ?x453) ?x272)))
(let (($x619 (and (and (<= ?x593 ?x239) (<= (+ ?x599 (* (- 5) |v6:5|)) ?x65)) $x618)))
(let ((?x105 (- 4)))
(let ((?x10 (- 9)))
(let ((?x394 (* ?x10 |v11:0|)))
(let ((?x173 (- 13)))
(let ((?x564 (* ?x173 |v11:0|)))
(let ((?x586 (+ (+ (+ (* 7 |v9:2|) (* 2 |v10:1|)) ?x564) ?x394)))
(let ((?x375 1))
(let ((?x579 (+ (+ (* (- 17) |v10:1|) (* (- 7) |v9:2|)) (* 16 |v8:3|))))
(let ((?x185 7))
(let ((?x186 (* ?x185 |v9:2|)))
(let ((?x572 (+ (+ (+ (* (- 5) |v5:6|) (* (- 17) |v8:3|)) ?x186) (* 19 |v3:8|))))
(let ((?x378 (- 8)))
(let ((?x97 8))
(let ((?x98 (* ?x97 |v11:0|)))
(let ((?x566 (+ (+ (+ (* (- 1) |v6:5|) (* (- 1) |v10:1|)) ?x564) ?x98)))
(let (($x589 (and (and (<= ?x566 ?x378) (<= ?x572 ?x204)) (and (<= (+ ?x579 (* ?x378 |v8:3|)) ?x375) (<= ?x586 ?x105)))))
(let ((?x102 (- 15)))
(let ((?x32 14))
(let ((?x33 (* ?x32 |v0:11|)))
(let ((?x556 (+ (+ (+ (* (- 18) |v3:8|) (* 20 |v7:4|)) ?x33) (* ?x173 |v8:3|))))
(let ((?x147 13))
(let ((?x551 (+ (+ (+ (* (- 12) |v10:1|) |v0:11|) (* (- 12) |v8:3|)) (* (- 2) |v8:3|))))
(let ((?x72 20))
(let ((?x543 (+ (+ (+ (* ?x147 |v1:10|) |v3:8|) (* 2 |v5:6|)) (* ?x111 |v7:4|))))
(let ((?x537 (+ (+ (+ (* (- 18) |v9:2|) (* ?x239 |v2:9|)) (* ?x111 |v5:6|)) (* ?x102 |v11:0|))))
(let (($x559 (and (and (<= ?x537 ?x97) (<= ?x543 ?x72)) (and (<= ?x551 ?x147) (<= ?x556 ?x102)))))
(let ((?x164 (- 17)))
(let ((?x27 6))
(let ((?x324 (* ?x27 |v6:5|)))
(let ((?x527 (+ (+ (* ?x111 |v6:5|) (* (- 11) |v3:8|)) (* 16 |v11:0|))))
(let ((?x57 15))
(let ((?x521 (+ (+ (+ (* ?x27 |v11:0|) (* (- 19) |v6:5|)) (* ?x173 |v4:7|)) (* (- 7) |v11:0|))))
(let ((?x73 (* ?x72 |v1:10|)))
(let ((?x513 (+ (+ (+ (* ?x111 |v4:7|) (* ?x24 |v9:2|)) (* (- 12) |v7:4|)) ?x73)))
(let ((?x14 (- 2)))
(let ((?x291 (* ?x105 |v3:8|)))
(let ((?x507 (+ (+ (+ (* ?x111 |v2:9|) (* (- 6) |v0:11|)) (* ?x57 |v3:8|)) ?x291)))
(let (($x531 (and (or (<= ?x507 ?x14) (<= ?x513 ?x375)) (and (<= ?x521 ?x57) (<= (+ ?x527 ?x324) ?x164)))))
(let ((?x143 10))
(let ((?x152 (- 19)))
(let ((?x232 (* ?x152 |v7:4|)))
(let ((?x495 (+ (+ (* 11 |v6:5|) (* (- 14) |v1:10|)) (* (- 5) |v2:9|))))
(let (($x491 (<= (+ (+ (+ |v9:2| (* ?x164 |v6:5|)) (* ?x105 |v10:1|)) (* ?x14 |v11:0|)) ?x152)))
(let ((?x480 (+ (+ (* 11 |v5:6|) (* (- 3) |v10:1|)) (* (- 7) |v6:5|))))
(let ((?x474 (+ (+ (+ (* (- 18) |v5:6|) (* ?x57 |v11:0|)) (* ?x152 |v11:0|)) (* 19 |v2:9|))))
(let (($x499 (and (or (<= ?x474 ?x24) (<= (+ ?x480 (* (- 12) |v11:0|)) ?x111)) (and $x491 (<= (+ ?x495 ?x232) ?x143)))))
(let ((?x368 (* ?x57 |v1:10|)))
(let ((?x465 (+ (+ (+ (* 12 |v9:2|) (* (- 3) |v5:6|)) ?x368) (* ?x164 |v0:11|))))
(let ((?x458 (+ (+ (+ (* ?x72 |v2:9|) ?x453) (* (- 14) |v4:7|)) (* (- 10) |v2:9|))))
(let ((?x220 (* ?x14 |v4:7|)))
(let ((?x450 (+ (+ (+ (* (- 5) |v1:10|) (* 2 |v6:5|)) ?x220) (* 19 |v8:3|))))
(let ((?x443 (+ (+ (+ (* ?x378 |v0:11|) (* 3 |v11:0|)) (* ?x32 |v6:5|)) (* (- 5) |v4:7|))))
(let (($x468 (and (and (<= ?x443 ?x57) (<= ?x450 ?x65)) (and (<= ?x458 ?x375) (<= ?x465 ?x27)))))
(let ((?x48 5))
(let ((?x128 (* ?x48 |v1:10|)))
(let ((?x431 (+ (+ (* (- 20) |v10:1|) (* ?x48 |v6:5|)) (* (- 5) |v8:3|))))
(let ((?x45 (- 18)))
(let ((?x425 (+ (+ (+ (* ?x72 |v7:4|) (* ?x147 |v9:2|)) ?x368) (* (- 7) |v7:4|))))
(let ((?x281 4))
(let ((?x417 (+ (+ (+ (* ?x147 |v5:6|) (* ?x97 |v5:6|)) (* ?x65 |v5:6|)) (* ?x48 |v11:0|))))
(let ((?x169 (- 10)))
(let ((?x409 (+ (+ (+ (* 16 |v0:11|) (* ?x281 |v7:4|)) (* ?x65 |v9:2|)) (* 11 |v2:9|))))
(let (($x435 (and (and (<= ?x409 ?x169) (<= ?x417 ?x281)) (and (<= ?x425 ?x45) (<= (+ ?x431 ?x128) ?x111)))))
(let ((?x131 (- 6)))
(let (($x400 (<= (+ (+ (+ ?x394 (* ?x131 |v5:6|)) (* ?x57 |v10:1|)) (* ?x97 |v1:10|)) ?x131)))
(let ((?x392 (+ (+ (+ (* ?x10 |v7:4|) (* ?x152 |v6:5|)) (* ?x152 |v11:0|)) (* ?x152 |v3:8|))))
(let ((?x384 (+ (+ (+ (* ?x378 |v1:10|) (* ?x24 |v5:6|)) (* ?x169 |v0:11|)) (* ?x378 |v3:8|))))
(let (($x376 (<= (+ (+ (+ ?x368 (* ?x185 |v8:3|)) (* ?x164 |v2:9|)) (* ?x48 |v3:8|)) ?x375)))
(let (($x436 (and (and (and $x376 (<= ?x384 ?x131)) (and (<= ?x392 ?x147) $x400)) $x435)))
(let ((?x53 (- 14)))
(let ((?x360 (+ (+ (+ (* ?x45 |v10:1|) (* ?x131 |v5:6|)) (* ?x24 |v11:0|)) (* ?x14 |v0:11|))))
(let ((?x354 (+ (+ (+ (* ?x45 |v3:8|) (* ?x147 |v1:10|)) (* ?x24 |v11:0|)) (* ?x102 |v3:8|))))
(let ((?x345 (+ (+ (+ (* (- 1) |v1:10|) (* ?x105 |v2:9|)) (* ?x147 |v10:1|)) (* (- 11) |v6:5|))))
(let ((?x335 (* ?x72 |v2:9|)))
(let ((?x336 (+ (+ (+ (* ?x152 |v2:9|) (* 3 |v2:9|)) (* ?x131 |v11:0|)) ?x335)))
(let (($x363 (and (and (<= ?x336 ?x14) (<= ?x345 ?x97)) (or (<= ?x354 ?x10) (<= ?x360 ?x53)))))
(let ((?x327 (+ (+ (+ (* ?x185 |v6:5|) (* ?x164 |v9:2|)) ?x324) (* (- 5) |v7:4|))))
(let ((?x223 2))
(let ((?x205 (* ?x204 |v5:6|)))
(let ((?x319 (+ (+ (+ (* ?x147 |v4:7|) (* (- 5) |v9:2|)) (* ?x24 |v3:8|)) ?x205)))
(let ((?x311 (+ (+ (+ (* ?x281 |v0:11|) (* ?x185 |v5:6|)) (* ?x10 |v6:5|)) (* 19 |v0:11|))))
(let ((?x304 (+ (+ (+ (* ?x152 |v11:0|) (* ?x10 |v8:3|)) (* ?x53 |v10:1|)) (* 16 |v5:6|))))
(let (($x330 (and (and (<= ?x304 ?x57) (<= ?x311 ?x27)) (and (<= ?x319 ?x223) (<= ?x327 ?x48)))))
(let ((?x84 (- 7)))
(let (($x295 (<= (+ (+ (+ (* ?x10 |v9:2|) (* ?x48 |v10:1|)) ?x291) (* ?x143 |v2:9|)) ?x84)))
(let ((?x61 3))
(let (($x296 (or (<= (+ (+ (+ (* ?x164 |v7:4|) (* ?x102 |v10:1|)) ?x33) ?x272) ?x61) $x295)))
(let ((?x209 (* ?x10 |v6:5|)))
(let ((?x280 (+ (+ (+ (* ?x65 |v4:7|) (* ?x32 |v1:10|)) (* (- 12) |v7:4|)) ?x209)))
(let ((?x273 (+ (+ (+ (* ?x24 |v1:10|) (* ?x45 |v2:9|)) (* (- 5) |v5:6|)) ?x272)))
(let ((?x264 (+ (+ (+ (* ?x10 |v0:11|) (* ?x32 |v10:1|)) (* ?x10 |v2:9|)) (* (- 20) |v6:5|))))
(let ((?x77 (- 12)))
(let ((?x254 (+ (+ (* ?x204 |v7:4|) (* 11 |v6:5|)) (* 11 |v8:3|))))
(let ((?x246 (* ?x10 |v8:3|)))
(let (($x248 (<= (+ (+ (+ (* ?x53 |v6:5|) (* ?x164 |v4:7|)) (* ?x72 |v3:8|)) ?x246) ?x65)))
(let ((?x238 (+ (+ (+ ?x232 (* ?x185 |v2:9|)) (* 11 |v7:4|)) (* ?x147 |v0:11|))))
(let (($x267 (or (and (<= ?x238 ?x239) $x248) (and (<= (+ ?x254 (* ?x77 |v3:8|)) ?x77) (<= ?x264 ?x72)))))
(let (($x365 (and (and $x267 (or (and (<= ?x273 ?x57) (<= ?x280 ?x281)) $x296)) (and $x330 $x363))))
(let ((?x35 (- 20)))
(let ((?x225 (+ (+ (+ (* 19 |v9:2|) (* 11 |v10:1|)) ?x220) (* ?x223 |v11:0|))))
(let (($x227 (and (<= (+ (+ (+ ?x209 (* ?x35 |v1:10|)) |v11:0|) ?x186) ?x173) (<= ?x225 ?x35))))
(let (($x207 (<= (+ (+ (+ (* ?x131 |v2:9|) (* ?x131 |v11:0|)) (* ?x102 |v8:3|)) ?x205) ?x45)))
(let ((?x196 (+ (+ (+ (* ?x27 |v1:10|) (* ?x97 |v2:9|)) (* (- 5) |v3:8|)) (* ?x35 |v11:0|))))
(let ((?x187 (+ (+ (+ (* 12 |v7:4|) (* ?x32 |v1:10|)) (* ?x102 |v1:10|)) ?x186)))
(let ((?x177 (+ (+ (+ (* ?x152 |v1:10|) (* ?x169 |v9:2|)) (* ?x173 |v2:9|)) (* (- 3) |v1:10|))))
(let ((?x163 (+ (+ (+ (* (- 5) |v11:0|) (* ?x143 |v5:6|)) (* ?x45 |v11:0|)) (* 12 |v5:6|))))
(let ((?x151 (+ (+ (+ (* ?x97 |v10:1|) (* ?x143 |v3:8|)) (* ?x147 |v10:1|)) (* ?x77 |v0:11|))))
(let (($x190 (and (and (<= ?x151 ?x152) (<= ?x163 ?x164)) (and (<= ?x177 ?x84) (<= ?x187 ?x102)))))
(let (($x136 (<= (+ (+ (+ (* ?x35 |v0:11|) ?x128) (* ?x131 |v10:1|)) (* ?x48 |v10:1|)) ?x24)))
(let ((?x68 (- 3)))
(let ((?x125 (+ (+ (+ (* ?x68 |v6:5|) (* ?x24 |v5:6|)) (* ?x35 |v5:6|)) (* ?x97 |v4:7|))))
(let ((?x115 (+ (+ (+ (* ?x105 |v0:11|) (* ?x68 |v8:3|)) (* ?x111 |v5:6|)) (* ?x97 |v0:11|))))
(let ((?x90 (- 5)))
(let ((?x100 (* ?x90 |v3:8|)))
(let (($x117 (and (<= (+ (+ (+ (* ?x90 |v5:6|) (* ?x77 |v2:9|)) ?x98) ?x100) ?x102) (<= ?x115 ?x72))))
(let ((?x83 (+ (+ (+ ?x73 (* ?x45 |v6:5|)) (* ?x77 |v5:6|)) (* (- 11) |v5:6|))))
(let ((?x67 (+ (+ (+ (* ?x53 |v0:11|) (* ?x57 |v5:6|)) (* ?x61 |v0:11|)) (* ?x65 |v1:10|))))
(let ((?x46 (* ?x45 |v10:1|)))
(let (($x49 (<= (+ (+ (+ ?x33 (* ?x35 |v7:4|)) (* 11 |v1:10|)) ?x46) ?x48)))
(let ((?x26 (+ (+ (+ (* ?x10 |v9:2|) (* ?x14 |v3:8|)) (* 16 |v7:4|)) (* ?x24 |v6:5|))))
(let (($x139 (and (and (and (<= ?x26 ?x27) $x49) (and (<= ?x67 ?x68) (<= ?x83 ?x84))) (and $x117 (and (<= ?x125 ?x68) $x136)))))
(let (($x366 (and (and $x139 (and $x190 (and (and (<= ?x196 ?x32) $x207) $x227))) $x365)))
(or $x366 (and (and $x436 (and $x468 $x499)) (or (or $x531 $x559) (or $x589 $x619))))))))))))))))))))))))))))))))))))))))))))))))))))))))))))))))))))))))))))))))))))))))))))))))))))))))))))))))))))))))))))))))))))))))))))
)
)
)
)
)
)
)
)
)
)
)
)
(check-sat)
(exit)

